


units                   metal
atom_style              atomic
dimension                   3
boundary                p p p
atom_modify             map array sort 0 0.0

read_data               poslmp_carbon.dat

variable                zmax     equal    zhi
variable                zmin     equal    zlo

region                  inner   cylinder   z  1.16564  0.67298333  100.0  ${zmin}  ${zmax}  units  box
group                   inner   region     inner
group                   outer   subtract   all  inner
group                   carbon  type       2

pair_style              eam/alloy
pair_coeff              * * FeC-Becquart2013.eam.txt Fe C
neighbor                0.3 bin
neigh_modify            delay 0 check yes every 1

compute                 force     carbon   reduce  sum  fx fy fz
variable                fx    equal    c_force[1]
variable                fy    equal    c_force[2]
variable                fz    equal    c_force[3]
variable                i      equal    288751
variable                x1     equal    x[v_i]
variable                y1     equal    y[v_i]
variable                z1     equal    z[v_i]
variable                x0     equal    ${x1}
variable                y0     equal    ${y1}
variable                z0     equal    ${z1}

fix                     force    outer    setforce      0.0 0.0 0.0
thermo_style            custom   step     v_fx v_fy v_fz pe ke etotal
min_style               cg
minimize                1.0e-30 1.0e-30 10000 10000
print                   "${x0} ${y0} ${z0} ${x1} ${y1} ${z1}" append info.dat



